w = 36;
n = 23;
x = [3, 3, 3, 3, 3, 3, 3, 3, 3, 3, 3, 3, 3, 3, 3, 4, 4, 4, 5, 5, 5, 5, 12];
y = [3, 4, 5, 6, 7, 8, 9, 10, 11, 12, 14, 15, 16, 24, 36, 3, 11, 22, 3, 4, 14, 15, 36];
l_max=96;
mag_w=100;
